50
2 1 774
3 1 264
3 2 252
4 1 800
4 2 200
4 3 885
5 1 343
5 2 954
5 3 609
5 4 252
6 1 815
6 2 55
6 3 699
6 4 857
6 5 379
7 1 708
7 2 823
7 3 975
7 4 803
7 5 913
7 6 357
8 1 549
8 2 781
8 3 551
8 4 716
8 5 952
8 6 22
8 7 840
9 1 708
9 2 347
9 3 357
9 4 613
9 5 169
9 6 668
9 7 942
9 8 566
10 1 67
10 2 476
10 3 879
10 4 842
10 5 521
10 6 185
10 7 805
10 8 589
10 9 423
11 1 418
11 2 280
11 3 365
11 4 606
11 5 492
11 6 33
11 7 524
11 8 745
11 9 299
11 10 387
12 1 951
12 2 445
12 3 63
12 4 419
12 5 798
12 6 190
12 7 754
12 8 690
12 9 67
12 10 105
12 11 141
13 1 593
13 2 199
13 3 727
13 4 756
13 5 646
13 6 33
13 7 211
13 8 252
13 9 290
13 10 762
13 11 675
13 12 930
14 1 17
14 2 777
14 3 624
14 4 429
14 5 887
14 6 514
14 7 640
14 8 827
14 9 746
14 10 688
14 11 778
14 12 671
14 13 734
15 1 557
15 2 372
15 3 679
15 4 864
15 5 61
15 6 174
15 7 118
15 8 772
15 9 8
15 10 30
15 11 125
15 12 934
15 13 645
15 14 536
16 1 450
16 2 926
16 3 277
16 4 352
16 5 407
16 6 534
16 7 786
16 8 130
16 9 6
16 10 794
16 11 200
16 12 241
16 13 541
16 14 267
16 15 673
17 1 738
17 2 131
17 3 118
17 4 519
17 5 260
17 6 962
17 7 817
17 8 172
17 9 797
17 10 244
17 11 532
17 12 201
17 13 535
17 14 135
17 15 525
17 16 764
18 1 193
18 2 125
18 3 112
18 4 120
18 5 571
18 6 649
18 7 19
18 8 85
18 9 222
18 10 926
18 11 191
18 12 569
18 13 473
18 14 274
18 15 364
18 16 551
18 17 203
19 1 411
19 2 978
19 3 139
19 4 87
19 5 497
19 6 250
19 7 592
19 8 257
19 9 910
19 10 448
19 11 424
19 12 540
19 13 27
19 14 724
19 15 979
19 16 748
19 17 498
19 18 25
20 1 95
20 2 694
20 3 775
20 4 946
20 5 751
20 6 874
20 7 901
20 8 547
20 9 806
20 10 17
20 11 806
20 12 488
20 13 233
20 14 932
20 15 621
20 16 18
20 17 454
20 18 354
20 19 761
21 1 662
21 2 664
21 3 728
21 4 781
21 5 644
21 6 286
21 7 114
21 8 258
21 9 388
21 10 908
21 11 664
21 12 201
21 13 651
21 14 357
21 15 364
21 16 756
21 17 97
21 18 774
21 19 969
21 20 186
22 1 398
22 2 827
22 3 339
22 4 403
22 5 163
22 6 430
22 7 602
22 8 545
22 9 264
22 10 615
22 11 853
22 12 349
22 13 380
22 14 412
22 15 308
22 16 333
22 17 823
22 18 893
22 19 129
22 20 32
22 21 964
23 1 733
23 2 338
23 3 804
23 4 814
23 5 936
23 6 533
23 7 940
23 8 599
23 9 593
23 10 328
23 11 105
23 12 377
23 13 811
23 14 723
23 15 344
23 16 13
23 17 179
23 18 838
23 19 174
23 20 95
23 21 418
23 22 703
24 1 501
24 2 588
24 3 69
24 4 49
24 5 376
24 6 306
24 7 379
24 8 290
24 9 837
24 10 511
24 11 732
24 12 129
24 13 350
24 14 208
24 15 276
24 16 495
24 17 593
24 18 954
24 19 622
24 20 742
24 21 590
24 22 244
24 23 730
25 1 304
25 2 453
25 3 794
25 4 379
25 5 240
25 6 234
25 7 279
25 8 835
25 9 380
25 10 636
25 11 363
25 12 614
25 13 991
25 14 592
25 15 54
25 16 438
25 17 168
25 18 968
25 19 739
25 20 805
25 21 388
25 22 884
25 23 431
25 24 761
26 1 915
26 2 421
26 3 69
26 4 783
26 5 5
26 6 706
26 7 923
26 8 881
26 9 95
26 10 632
26 11 425
26 12 317
26 13 419
26 14 721
26 15 2
26 16 548
26 17 748
26 18 882
26 19 701
26 20 296
26 21 187
26 22 65
26 23 705
26 24 853
26 25 229
27 1 64
27 2 37
27 3 12
27 4 493
27 5 983
27 6 14
27 7 250
27 8 864
27 9 108
27 10 289
27 11 39
27 12 942
27 13 187
27 14 523
27 15 418
27 16 22
27 17 390
27 18 23
27 19 205
27 20 27
27 21 429
27 22 896
27 23 473
27 24 91
27 25 610
27 26 552
28 1 172
28 2 743
28 3 809
28 4 604
28 5 29
28 6 865
28 7 638
28 8 503
28 9 100
28 10 878
28 11 292
28 12 451
28 13 604
28 14 847
28 15 841
28 16 426
28 17 922
28 18 444
28 19 962
28 20 380
28 21 880
28 22 955
28 23 376
28 24 927
28 25 710
28 26 787
28 27 484
29 1 75
29 2 301
29 3 144
29 4 959
29 5 849
29 6 635
29 7 842
29 8 302
29 9 832
29 10 524
29 11 430
29 12 607
29 13 978
29 14 34
29 15 63
29 16 50
29 17 231
29 18 223
29 19 836
29 20 847
29 21 792
29 22 69
29 23 495
29 24 690
29 25 83
29 26 727
29 27 737
29 28 908
30 1 735
30 2 480
30 3 525
30 4 872
30 5 164
30 6 21
30 7 122
30 8 376
30 9 541
30 10 945
30 11 779
30 12 18
30 13 242
30 14 581
30 15 264
30 16 825
30 17 76
30 18 532
30 19 688
30 20 624
30 21 873
30 22 570
30 23 299
30 24 923
30 25 231
30 26 747
30 27 207
30 28 291
30 29 502
31 1 867
31 2 215
31 3 508
31 4 336
31 5 682
31 6 202
31 7 974
31 8 331
31 9 456
31 10 756
31 11 139
31 12 624
31 13 763
31 14 990
31 15 955
31 16 484
31 17 658
31 18 732
31 19 612
31 20 215
31 21 593
31 22 542
31 23 41
31 24 952
31 25 709
31 26 234
31 27 963
31 28 147
31 29 390
31 30 850
32 1 477
32 2 827
32 3 189
32 4 275
32 5 430
32 6 935
32 7 529
32 8 945
32 9 95
32 10 316
32 11 793
32 12 320
32 13 893
32 14 170
32 15 678
32 16 85
32 17 171
32 18 41
32 19 959
32 20 247
32 21 288
32 22 648
32 23 27
32 24 597
32 25 515
32 26 133
32 27 834
32 28 201
32 29 495
32 30 540
32 31 127
33 1 881
33 2 281
33 3 594
33 4 96
33 5 870
33 6 190
33 7 91
33 8 815
33 9 76
33 10 994
33 11 466
33 12 113
33 13 664
33 14 180
33 15 361
33 16 740
33 17 879
33 18 308
33 19 261
33 20 965
33 21 309
33 22 703
33 23 496
33 24 991
33 25 35
33 26 986
33 27 200
33 28 797
33 29 348
33 30 209
33 31 32
33 32 315
34 1 981
34 2 591
34 3 717
34 4 32
34 5 52
34 6 103
34 7 744
34 8 441
34 9 146
34 10 418
34 11 763
34 12 925
34 13 244
34 14 970
34 15 520
34 16 995
34 17 422
34 18 133
34 19 383
34 20 969
34 21 531
34 22 766
34 23 776
34 24 515
34 25 284
34 26 641
34 27 92
34 28 645
34 29 447
34 30 488
34 31 902
34 32 67
34 33 79
35 1 681
35 2 520
35 3 19
35 4 4
35 5 809
35 6 247
35 7 950
35 8 967
35 9 633
35 10 857
35 11 695
35 12 156
35 13 194
35 14 140
35 15 9
35 16 33
35 17 59
35 18 573
35 19 603
35 20 674
35 21 981
35 22 436
35 23 39
35 24 46
35 25 455
35 26 929
35 27 144
35 28 925
35 29 941
35 30 116
35 31 788
35 32 388
35 33 741
35 34 768
36 1 182
36 2 70
36 3 806
36 4 401
36 5 59
36 6 640
36 7 954
36 8 98
36 9 376
36 10 165
36 11 271
36 12 916
36 13 407
36 14 328
36 15 684
36 16 953
36 17 369
36 18 673
36 19 973
36 20 385
36 21 939
36 22 328
36 23 717
36 24 45
36 25 320
36 26 892
36 27 933
36 28 359
36 29 704
36 30 435
36 31 408
36 32 698
36 33 285
36 34 788
36 35 980
37 1 479
37 2 187
37 3 586
37 4 276
37 5 563
37 6 943
37 7 735
37 8 645
37 9 780
37 10 398
37 11 251
37 12 320
37 13 633
37 14 173
37 15 674
37 16 24
37 17 522
37 18 60
37 19 476
37 20 560
37 21 23
37 22 980
37 23 177
37 24 117
37 25 64
37 26 391
37 27 93
37 28 299
37 29 50
37 30 259
37 31 919
37 32 141
37 33 264
37 34 988
37 35 583
37 36 605
38 1 94
38 2 922
38 3 64
38 4 312
38 5 926
38 6 309
38 7 111
38 8 521
38 9 742
38 10 858
38 11 63
38 12 601
38 13 770
38 14 248
38 15 205
38 16 498
38 17 718
38 18 250
38 19 354
38 20 965
38 21 445
38 22 309
38 23 610
38 24 541
38 25 101
38 26 737
38 27 479
38 28 547
38 29 77
38 30 884
38 31 791
38 32 592
38 33 324
38 34 921
38 35 114
38 36 351
38 37 846
39 1 118
39 2 606
39 3 620
39 4 460
39 5 727
39 6 496
39 7 889
39 8 105
39 9 881
39 10 629
39 11 951
39 12 298
39 13 104
39 14 777
39 15 299
39 16 531
39 17 335
39 18 644
39 19 304
39 20 691
39 21 581
39 22 774
39 23 441
39 24 810
39 25 591
39 26 786
39 27 61
39 28 707
39 29 164
39 30 638
39 31 460
39 32 361
39 33 979
39 34 858
39 35 255
39 36 48
39 37 84
39 38 931
40 1 320
40 2 591
40 3 401
40 4 294
40 5 780
40 6 266
40 7 896
40 8 610
40 9 822
40 10 190
40 11 288
40 12 289
40 13 328
40 14 260
40 15 416
40 16 423
40 17 580
40 18 953
40 19 658
40 20 590
40 21 543
40 22 557
40 23 16
40 24 219
40 25 480
40 26 647
40 27 763
40 28 444
40 29 903
40 30 880
40 31 759
40 32 662
40 33 109
40 34 407
40 35 842
40 36 206
40 37 818
40 38 499
40 39 890
41 1 859
41 2 650
41 3 168
41 4 467
41 5 112
41 6 459
41 7 874
41 8 161
41 9 398
41 10 766
41 11 632
41 12 989
41 13 705
41 14 805
41 15 71
41 16 522
41 17 293
41 18 935
41 19 275
41 20 578
41 21 427
41 22 410
41 23 473
41 24 642
41 25 344
41 26 778
41 27 880
41 28 365
41 29 869
41 30 398
41 31 275
41 32 791
41 33 402
41 34 844
41 35 114
41 36 179
41 37 181
41 38 178
41 39 260
41 40 559
42 1 50
42 2 377
42 3 635
42 4 385
42 5 141
42 6 382
42 7 364
42 8 933
42 9 187
42 10 555
42 11 234
42 12 312
42 13 387
42 14 526
42 15 522
42 16 213
42 17 30
42 18 695
42 19 517
42 20 789
42 21 309
42 22 891
42 23 304
42 24 279
42 25 21
42 26 937
42 27 617
42 28 270
42 29 95
42 30 133
42 31 837
42 32 710
42 33 141
42 34 901
42 35 444
42 36 64
42 37 448
42 38 109
42 39 500
42 40 239
42 41 147
43 1 812
43 2 966
43 3 153
43 4 453
43 5 429
43 6 925
43 7 72
43 8 202
43 9 599
43 10 35
43 11 118
43 12 108
43 13 229
43 14 762
43 15 538
43 16 432
43 17 473
43 18 233
43 19 656
43 20 20
43 21 668
43 22 743
43 23 599
43 24 878
43 25 464
43 26 268
43 27 200
43 28 750
43 29 651
43 30 525
43 31 701
43 32 368
43 33 450
43 34 399
43 35 127
43 36 332
43 37 263
43 38 822
43 39 475
43 40 799
43 41 137
43 42 392
44 1 77
44 2 437
44 3 441
44 4 320
44 5 787
44 6 320
44 7 529
44 8 515
44 9 857
44 10 713
44 11 359
44 12 872
44 13 633
44 14 940
44 15 363
44 16 75
44 17 453
44 18 772
44 19 34
44 20 493
44 21 379
44 22 30
44 23 15
44 24 975
44 25 631
44 26 343
44 27 666
44 28 620
44 29 860
44 30 248
44 31 387
44 32 821
44 33 643
44 34 85
44 35 186
44 36 175
44 37 813
44 38 366
44 39 254
44 40 52
44 41 525
44 42 563
44 43 539
45 1 904
45 2 165
45 3 513
45 4 594
45 5 619
45 6 497
45 7 874
45 8 180
45 9 502
45 10 668
45 11 324
45 12 391
45 13 682
45 14 956
45 15 447
45 16 303
45 17 24
45 18 382
45 19 499
45 20 400
45 21 857
45 22 572
45 23 491
45 24 280
45 25 84
45 26 500
45 27 279
45 28 396
45 29 492
45 30 977
45 31 612
45 32 835
45 33 331
45 34 33
45 35 319
45 36 391
45 37 475
45 38 555
45 39 82
45 40 433
45 41 724
45 42 826
45 43 485
45 44 324
46 1 85
46 2 827
46 3 279
46 4 394
46 5 75
46 6 440
46 7 56
46 8 721
46 9 373
46 10 935
46 11 775
46 12 227
46 13 391
46 14 362
46 15 829
46 16 835
46 17 575
46 18 726
46 19 593
46 20 696
46 21 496
46 22 83
46 23 647
46 24 748
46 25 69
46 26 928
46 27 119
46 28 93
46 29 437
46 30 506
46 31 827
46 32 958
46 33 361
46 34 928
46 35 179
46 36 248
46 37 174
46 38 213
46 39 3
46 40 928
46 41 606
46 42 647
46 43 770
46 44 757
46 45 64
47 1 74
47 2 879
47 3 112
47 4 168
47 5 12
47 6 960
47 7 925
47 8 619
47 9 709
47 10 387
47 11 957
47 12 710
47 13 527
47 14 434
47 15 947
47 16 52
47 17 287
47 18 767
47 19 368
47 20 324
47 21 437
47 22 220
47 23 797
47 24 117
47 25 189
47 26 41
47 27 159
47 28 194
47 29 997
47 30 52
47 31 347
47 32 721
47 33 3
47 34 411
47 35 965
47 36 294
47 37 334
47 38 917
47 39 210
47 40 828
47 41 375
47 42 59
47 43 134
47 44 620
47 45 404
47 46 239
48 1 800
48 2 152
48 3 206
48 4 863
48 5 84
48 6 461
48 7 556
48 8 245
48 9 118
48 10 126
48 11 697
48 12 516
48 13 644
48 14 202
48 15 184
48 16 973
48 17 762
48 18 662
48 19 739
48 20 564
48 21 855
48 22 161
48 23 979
48 24 451
48 25 657
48 26 195
48 27 155
48 28 844
48 29 756
48 30 966
48 31 284
48 32 534
48 33 8
48 34 516
48 35 289
48 36 841
48 37 631
48 38 961
48 39 42
48 40 895
48 41 976
48 42 877
48 43 435
48 44 453
48 45 236
48 46 155
48 47 841
49 1 690
49 2 581
49 3 903
49 4 625
49 5 661
49 6 499
49 7 197
49 8 556
49 9 365
49 10 318
49 11 763
49 12 259
49 13 615
49 14 187
49 15 890
49 16 95
49 17 140
49 18 4
49 19 152
49 20 81
49 21 629
49 22 52
49 23 748
49 24 739
49 25 641
49 26 346
49 27 538
49 28 6
49 29 583
49 30 945
49 31 73
49 32 573
49 33 198
49 34 728
49 35 205
49 36 292
49 37 241
49 38 403
49 39 78
49 40 526
49 41 305
49 42 725
49 43 578
49 44 564
49 45 972
49 46 214
49 47 545
49 48 501
